c This is QMaxSAT 2017 based on 14.07
c This is Glucose 3.0
c This is MiniSat 2.2.0
c WARNING: for repeatability, setting FPU to use double precision
c card = mrwto, comp = 0, pmodel = 0, narr = 4, mct = 24, verb = 0
cr firstCPXsol 0 0 0
c top = 81479
c |  Number of variables:    13942                                            |
c |  Number of clauses:      2913832                                          |
c |  Weight of hard clauses: 81479                                            |
c |  Number of soft clauses: 2208                                             |
c |  Number of unit soft clauses: 2208                                        |
c |  Maximum Cardinality (by unit): 325912       (325912      )               |
c last restart ## conflicts  :  7 1686 
o 1372 | cpuTime 0.256096 s
c Sum of weights = 81478
c A number of soft clauses remained = 552
c MRWTO encoding for Pseudo-Boolean Constraints
c sizeMax=1372
c No.0 Divisor=12	generated by pow1
c No.1 Divisor=12	generated by pow1
c No.2 Divisor=12	generated by pow1
c p0= 12	p1= 12	p2= 12	
c number of digits = 4
c linkingVar[0].size = 12, linkingVar[1].size = 12, linkingVar[2].size = 10, linkingVar[3].size = 1, 
c Pseudo-Boolean Constraints: 12051 variables and 115467 clauses
c Sum of weights = 81478
c A number of soft clauses remained = 552
c MRWTO encoding for Pseudo-Boolean Constraints
c sizeMax=1372
c No.0 Divisor=12	generated by pow1
c No.1 Divisor=12	generated by pow1
c No.2 Divisor=12	generated by pow1
c p0= 12	p1= 12	p2= 12	
c number of digits = 4
c linkingVar[0].size = 12, linkingVar[1].size = 12, linkingVar[2].size = 10, linkingVar[3].size = 1, 
c Pseudo-Boolean Constraints: 12051 variables and 115467 clauses
c Sum of weights = 81478
c A number of soft clauses remained = 552
c MRWTO encoding for Pseudo-Boolean Constraints
c sizeMax=1372
c No.0 Divisor=12	generated by pow1
c No.1 Divisor=12	generated by pow1
c No.2 Divisor=12	generated by pow1
c p0= 12	p1= 12	p2= 12	
c number of digits = 4
c linkingVar[0].size = 12, linkingVar[1].size = 12, linkingVar[2].size = 10, linkingVar[3].size = 1, 
c Pseudo-Boolean Constraints: 12051 variables and 115467 clauses
c Sum of weights = 81478
c A number of soft clauses remained = 552
c MRWTO encoding for Pseudo-Boolean Constraints
c sizeMax=1372
c No.0 Divisor=12	generated by pow1
c No.1 Divisor=12	generated by pow1
c No.2 Divisor=12	generated by pow1
c p0= 12	p1= 12	p2= 12	
c number of digits = 4
c linkingVar[0].size = 12, linkingVar[1].size = 12, linkingVar[2].size = 10, linkingVar[3].size = 1, 
c Pseudo-Boolean Constraints: 12051 variables and 115467 clauses
c last restart ## conflicts  :  108 3206 
o 1226 | cpuTime 0.351445 s
c last restart ## conflicts  :  160 2895 
o 1176 | cpuTime 0.884993 s
c last restart ## conflicts  :  147 3847 
o 1079 | cpuTime 9.91076 s
c last restart ## conflicts  :  130 7419 
o 1059 | cpuTime 9.9567 s
c last restart ## conflicts  :  314 2076 
o 996 | cpuTime 16.906 s
c last restart ## conflicts  :  232 3627 
o 930 | cpuTime 16.9853 s
c last restart ## conflicts  :  396 2410 
o 897 | cpuTime 20.0316 s
c last restart ## conflicts  :  9 5494 
o 884 | cpuTime 20.3975 s
c last restart ## conflicts  :  178 5424 
o 865 | cpuTime 20.4493 s
c last restart ## conflicts  :  34 2232 
o 846 | cpuTime 26.1837 s
c last restart ## conflicts  :  92 1755 
o 844 | cpuTime 30.6093 s
c last restart ## conflicts  :  6349 1672 
o 817 | cpuTime 88.4043 s
c last restart ## conflicts  :  10487 3801 
o 816 | cpuTime 106.614 s
c last restart ## conflicts  :  971 1870 
o 802 | cpuTime 112.107 s
c last restart ## conflicts  :  315 1852 
o 771 | cpuTime 175.289 s
c last restart ## conflicts  :  273 1655 
o 754 | cpuTime 307.047 s
c last restart ## conflicts  :  6 1368 
o 743 | cpuTime 389.137 s
c last restart ## conflicts  :  86 1683 
o 738 | cpuTime 397.55 s
c last restart ## conflicts  :  13 1670 
o 701 | cpuTime 546.711 s
c last restart ## conflicts  :  149 1661 
o 689 | cpuTime 758.466 s
c last restart ## conflicts  :  225 1795 
o 685 | cpuTime 2277.98 s
c last restart ## conflicts  :  36 5571 
o 660 | cpuTime 2278.02 s
s UNKNOWN
c Search is stopped by a limit (maybe time-limit)
cr positiVarArr: [ | 16@1(1->16) | 66@1(3->18) | 243@1(11->3) | 371@1(16->11) | 430@1(18->22) | 505@1(22->1) | 582@2(1->6) | 657@2(4->9) | 703@2(6->7) | 724@2(7->4) | 781@2(9->13) | 887@2(13->23) | 1105@2(23->1) | 1160@3(1->8) | 1196@3(2->20) | 1322@3(8->2) | 1369@3(10->1) | 1474@3(14->10) | 1622@3(20->14) | 1740@4(1->12) | 1825@4(5->1) | 2016@4(12->24) | 2069@4(15->5) | 2131@4(17->19) | 2175@4(19->15) | 2225@4(21->17) | 2301@4(24->21) | ]
cr the 1-th chain: [ 1->16->11->3->18->22->1 ] (#non-depot=5) {#cumul.=6}
cr the 2-th chain: [ 1->6->7->4->9->13->23->1 ] (#non-depot=6) {#cumul.=12}
cr the 3-th chain: [ 1->8->2->20->14->10->1 ] (#non-depot=5) {#cumul.=17}
cr the 4-th chain: [ 1->12->24->21->17->19->15->5->1 ] (#non-depot=7) {#cumul.=24}
c Latest Answer = 0 by 23 loops
c restarts              : 43811
c conflicts             : 13448383       (3745 /sec)
c decisions             : 59160972       (0.00 % random) (16475 /sec)
c propagations          : 19491727532    (5428048 /sec)
c conflict literals     : 3745410384     (46.22 % deleted)
c Memory used           : 952.00 MB
c CPU time              : 3590.93 s
